Solver command line: ['C:\\Program Files\\IBM\\ILOG\\CPLEX_Studio2211\\cplex\\bin\\x64_win64\\cplex.exe']


Welcome to IBM(R) ILOG(R) CPLEX(R) Interactive Optimizer 22.1.1.0
  with Simplex, Mixed Integer & Barrier Optimizers
5725-A06 5725-A29 5724-Y48 5724-Y49 5724-Y54 5724-Y55 5655-Y21
Copyright IBM Corp. 1988, 2022.  All Rights Reserved.

Type 'help' for a list of available commands.
Type 'help' followed by a command name for more
information on commands.

CPLEX> Logfile 'cplex.log' closed.
Logfile 'C:\Users\wangy\Documents\GitHub\re_optimization\result_site_specific\tmpghmjbnxu.cplex.log' open.
CPLEX> Problem 'C:\Users\wangy\Documents\GitHub\re_optimization\result_site_specific\tmpqtt1pj6l.pyomo.lp' read.
Read time = 0.27 sec. (7.28 ticks)
CPLEX> Problem name         : C:\Users\wangy\Documents\GitHub\re_optimization\result_site_specific\tmpqtt1pj6l.pyomo.lp
Objective sense      : Minimize
Variables            :   52617  [Nneg: 27764,  Free: 8786,  Binary: 7,
                                 Other: 16060]
Objective nonzeros   :      14
Linear constraints   :   73052  [Less: 39437,  Greater: 3,  Equal: 33612]
  Nonzeros           :  181206
  RHS nonzeros       :    4058

Variables            : Min LB: 0.000000         Max UB: 1.000000       
Objective nonzeros   : Min   : 1.000000         Max   : 1.000000       
Linear constraints   :
  Nonzeros           : Min   : 0.005074887      Max   : 100000.0       
  RHS nonzeros       : Min   : 0.001000000      Max   : 1000.000       
CPLEX> Version identifier: 22.1.1.0 | 2022-11-27 | 9160aff4d
Tried aggregator 3 times.
MIP Presolve eliminated 47794 rows and 28815 columns.
Aggregator did 7377 substitutions.
Reduced MIP has 17881 rows, 16425 columns, and 51874 nonzeros.
Reduced MIP has 5 binaries, 0 generals, 0 SOSs, and 0 indicators.
Presolve time = 0.14 sec. (152.84 ticks)
Found incumbent of value 155934.426086 after 0.20 sec. (178.03 ticks)
Probing time = 0.00 sec. (1.09 ticks)
Tried aggregator 1 time.
Detecting symmetries...
Reduced MIP has 17881 rows, 16425 columns, and 51874 nonzeros.
Reduced MIP has 5 binaries, 0 generals, 0 SOSs, and 0 indicators.
Presolve time = 0.03 sec. (30.88 ticks)
Probing time = 0.02 sec. (0.97 ticks)
MIP emphasis: balance optimality and feasibility.
MIP search method: dynamic search.
Parallel mode: deterministic, using up to 16 threads.
Root relaxation solution time = 0.70 sec. (412.52 ticks)

        Nodes                                         Cuts/
   Node  Left     Objective  IInf  Best Integer    Best Bound    ItCnt     Gap

*     0+    0                       155934.4261    -3603.5046           102.31%
*     0+    0                         2955.8417    -3603.5046           221.91%
*     0     0      integral     0     2953.8235     2953.8235     7465    0.00%
Elapsed time = 1.03 sec. (656.25 ticks, tree = 0.00 MB, solutions = 3)

Root node processing (before b&c):
  Real time             =    1.03 sec. (658.75 ticks)
Parallel b&c, 16 threads:
  Real time             =    0.00 sec. (0.00 ticks)
  Sync time (average)   =    0.00 sec.
  Wait time (average)   =    0.00 sec.
                          ------------
Total (root+branch&cut) =    1.03 sec. (658.75 ticks)

Solution pool: 3 solutions saved.

MIP - Integer optimal solution:  Objective =  2.9538234665e+03
Solution time =    1.03 sec.  Iterations = 7465  Nodes = 0
Deterministic time = 658.90 ticks  (639.09 ticks/sec)

CPLEX> Incumbent solution written to file 'C:\Users\wangy\Documents\GitHub\re_optimization\result_site_specific\tmppom3h0t3.cplex.sol'.
CPLEX> 
